(set-info :source |printed by MathSAT|)
(declare-fun |.x{113}| () Int)
(declare-fun |.x{307}| () Int)
(declare-fun |.x{114}| () Int)
(declare-fun |.x{308}| () Int)
(declare-fun |.x{115}| () Int)
(declare-fun |.x{309}| () Int)
(declare-fun |.x{116}| () (Array Int Int))
(declare-fun |.x{310}| () (Array Int Int))
(declare-fun |.x{127}| () Int)
(declare-fun |.x{311}| () Int)
(declare-fun |.x{118}| () Int)
(declare-fun |.x{312}| () Int)
(declare-fun |.x{119}| () Int)
(declare-fun |.x{313}| () Int)
(declare-fun |.x{120}| () Int)
(declare-fun |.x{314}| () Int)
(declare-fun |.x{131}| () Int)
(declare-fun |.x{315}| () Int)
(declare-fun |.x{122}| () Bool)
(declare-fun |.x{296}| () Bool)
(declare-fun |.loc{4}| () Bool)
(declare-fun |.loc{7}| () Bool)
(declare-fun |.loc{5}| () Bool)
(declare-fun |.loc{8}| () Bool)
(declare-fun |.loc{6}| () Bool)
(declare-fun |.loc{9}| () Bool)
(define-fun .def_30 () Bool (! |.loc{5}| :next |.loc{8}|))
(define-fun .def_99 () Bool (not .def_30))
(define-fun .def_28 () Bool (! |.loc{4}| :next |.loc{7}|))
(define-fun .def_213 () Bool (and .def_28 .def_99))
(define-fun .def_32 () Bool (! |.loc{6}| :next |.loc{9}|))
(define-fun .def_45 () Bool (not .def_32))
(define-fun .def_214 () Bool (and .def_45 .def_213))
(define-fun .def_26 () Bool (! |.x{122}| :next |.x{296}|))
(define-fun .def_212 () Bool (not .def_26))
(define-fun .def_215 () Bool (! (and .def_212 .def_214) :init true))
(define-fun .def_158 () Bool (= |.x{311}| 0))
(define-fun .def_191 () Bool (or .def_26 .def_158))
(define-fun .def_12 () Int (! |.x{115}| :next |.x{309}|))
(define-fun .def_47 () Bool (= .def_12 |.x{309}|))
(define-fun .def_104 () Bool (and .def_45 .def_47))
(define-fun .def_18 () Int (! |.x{118}| :next |.x{312}|))
(define-fun .def_55 () Bool (= .def_18 |.x{312}|))
(define-fun .def_187 () Bool (and .def_55 .def_104))
(define-fun .def_188 () Bool (and |.x{296}| .def_187))
(define-fun .def_189 () Bool (and |.x{296}| .def_188))
(define-fun .def_190 () Bool (and |.x{296}| .def_189))
(define-fun .def_192 () Bool (and .def_190 .def_191))
(define-fun .def_122 () Bool (= |.x{311}| |.x{315}|))
(define-fun .def_10 () Int (! |.x{114}| :next |.x{308}|))
(define-fun .def_84 () Real (* (/ 1 4294967296) (to_real .def_10)))
(define-fun .def_85 () Int (to_int .def_84))
(define-fun .def_86 () Int (* (- 4294967296) .def_85))
(define-fun .def_87 () Int (+ .def_10 .def_86))
(define-fun .def_118 () Bool (<= 0 .def_87))
(define-fun .def_116 () Bool (<= 5 .def_87))
(define-fun .def_117 () Bool (not .def_116))
(define-fun .def_119 () Bool (and .def_117 .def_118))
(define-fun .def_120 () Int (ite .def_119 1 0))
(define-fun .def_121 () Bool (= |.x{315}| .def_120))
(define-fun .def_123 () Bool (and .def_121 .def_122))
(define-fun .def_124 () Bool (or .def_26 .def_123))
(define-fun .def_193 () Bool (and .def_124 .def_192))
(define-fun .def_194 () Bool (and .def_28 .def_193))
(define-fun .def_195 () Bool (and .def_30 .def_194))
(define-fun .def_181 () Bool (= |.x{312}| 1))
(define-fun .def_182 () Bool (or .def_26 .def_181))
(define-fun .def_176 () Bool (= |.x{309}| |.x{312}|))
(define-fun .def_177 () Bool (or |.x{296}| .def_176))
(define-fun .def_44 () Bool (= .def_26 |.x{296}|))
(define-fun .def_178 () Bool (and .def_44 .def_177))
(define-fun .def_24 () Int (! |.x{131}| :next |.x{315}|))
(define-fun .def_49 () Bool (= .def_24 |.x{315}|))
(define-fun .def_179 () Bool (and .def_49 .def_178))
(define-fun .def_16 () Int (! |.x{127}| :next |.x{311}|))
(define-fun .def_51 () Bool (= .def_16 |.x{311}|))
(define-fun .def_180 () Bool (and .def_51 .def_179))
(define-fun .def_183 () Bool (and .def_180 .def_182))
(define-fun .def_184 () Bool (and .def_99 .def_183))
(define-fun .def_79 () Bool (not .def_28))
(define-fun .def_185 () Bool (and .def_79 .def_184))
(define-fun .def_186 () Bool (and .def_32 .def_185))
(define-fun .def_196 () Bool (or .def_186 .def_195))
(define-fun .def_57 () Bool (not |.loc{8}|))
(define-fun .def_174 () Bool (and |.loc{9}| .def_57))
(define-fun .def_175 () Bool (and .def_57 .def_174))
(define-fun .def_197 () Bool (and .def_175 .def_196))
(define-fun .def_46 () Bool (and .def_44 .def_45))
(define-fun .def_48 () Bool (and .def_46 .def_47))
(define-fun .def_50 () Bool (and .def_48 .def_49))
(define-fun .def_52 () Bool (and .def_50 .def_51))
(define-fun .def_96 () Bool (and |.loc{8}| .def_52))
(define-fun .def_130 () Bool (and .def_55 .def_96))
(define-fun .def_65 () Bool (not |.loc{9}|))
(define-fun .def_167 () Bool (and .def_65 .def_130))
(define-fun .def_171 () Bool (and .def_26 .def_167))
(define-fun .def_172 () Bool (and .def_79 .def_171))
(define-fun .def_173 () Bool (and .def_30 .def_172))
(define-fun .def_198 () Bool (or .def_173 .def_197))
(define-fun .def_8 () Int (! |.x{113}| :next |.x{307}|))
(define-fun .def_127 () Bool (= .def_8 |.x{307}|))
(define-fun .def_199 () Bool (and .def_127 .def_198))
(define-fun .def_70 () Real (* (/ 1 256) (to_real .def_8)))
(define-fun .def_71 () Int (to_int .def_70))
(define-fun .def_73 () Int (* (- 256) .def_71))
(define-fun .def_74 () Int (+ .def_8 .def_73))
(define-fun .def_75 () Bool (= .def_74 0))
(define-fun .def_166 () Bool (or .def_26 .def_75))
(define-fun .def_168 () Bool (and .def_166 .def_167))
(define-fun .def_169 () Bool (and .def_79 .def_168))
(define-fun .def_170 () Bool (and .def_30 .def_169))
(define-fun .def_200 () Bool (or .def_170 .def_199))
(define-fun .def_201 () Bool (and |.loc{7}| .def_200))
(define-fun .def_159 () Bool (not .def_158))
(define-fun .def_160 () Bool (or |.x{296}| .def_159))
(define-fun .def_153 () Bool (and .def_44 .def_104))
(define-fun .def_154 () Bool (and .def_55 .def_153))
(define-fun .def_155 () Bool (and |.loc{9}| .def_154))
(define-fun .def_156 () Bool (and .def_57 .def_155))
(define-fun .def_61 () Bool (not |.loc{7}|))
(define-fun .def_157 () Bool (and .def_61 .def_156))
(define-fun .def_161 () Bool (and .def_157 .def_160))
(define-fun .def_162 () Bool (and .def_28 .def_161))
(define-fun .def_163 () Bool (and .def_124 .def_162))
(define-fun .def_164 () Bool (and .def_30 .def_163))
(define-fun .def_165 () Bool (and .def_127 .def_164))
(define-fun .def_202 () Bool (or .def_165 .def_201))
(define-fun .def_14 () (Array Int Int) (! |.x{116}| :next |.x{310}|))
(define-fun .def_53 () Bool (= .def_14 |.x{310}|))
(define-fun .def_203 () Bool (and .def_53 .def_202))
(define-fun .def_20 () Int (! |.x{119}| :next |.x{313}|))
(define-fun .def_59 () Bool (= .def_20 |.x{313}|))
(define-fun .def_204 () Bool (and .def_59 .def_203))
(define-fun .def_82 () Bool (= .def_10 |.x{308}|))
(define-fun .def_205 () Bool (and .def_82 .def_204))
(define-fun .def_144 () Int (* (- 1) |.x{308}|))
(define-fun .def_145 () Int (+ .def_10 .def_144))
(define-fun .def_146 () Bool (= .def_145 (- 1)))
(define-fun .def_134 () Int (* 4294967296 .def_85))
(define-fun .def_136 () Int (* (- 1) .def_134))
(define-fun .def_137 () Int (+ .def_10 .def_136))
(define-fun .def_138 () Int (+ (- 4294967296) .def_137))
(define-fun .def_140 () Bool (<= .def_87 2147483647))
(define-fun .def_141 () Int (ite .def_140 .def_137 .def_138))
(define-fun .def_142 () (Array Int Int) (store .def_14 .def_141 0))
(define-fun .def_143 () Bool (= |.x{310}| .def_142))
(define-fun .def_147 () Bool (and .def_143 .def_146))
(define-fun .def_148 () Bool (or .def_26 .def_147))
(define-fun .def_131 () Bool (and .def_61 .def_130))
(define-fun .def_132 () Bool (and .def_65 .def_131))
(define-fun .def_149 () Bool (and .def_132 .def_148))
(define-fun .def_150 () Bool (and .def_99 .def_149))
(define-fun .def_151 () Bool (and .def_79 .def_150))
(define-fun .def_152 () Bool (and .def_127 .def_151))
(define-fun .def_206 () Bool (or .def_152 .def_205))
(define-fun .def_105 () Bool (and .def_53 .def_104))
(define-fun .def_106 () Bool (and .def_55 .def_105))
(define-fun .def_107 () Bool (and |.loc{9}| .def_106))
(define-fun .def_108 () Bool (and .def_57 .def_107))
(define-fun .def_109 () Bool (and |.x{296}| .def_108))
(define-fun .def_110 () Bool (and .def_59 .def_109))
(define-fun .def_111 () Bool (and .def_61 .def_110))
(define-fun .def_112 () Bool (and .def_26 .def_111))
(define-fun .def_113 () Bool (and .def_28 .def_112))
(define-fun .def_125 () Bool (and .def_113 .def_124))
(define-fun .def_126 () Bool (and .def_30 .def_125))
(define-fun .def_128 () Bool (and .def_126 .def_127))
(define-fun .def_129 () Bool (and .def_82 .def_128))
(define-fun .def_207 () Bool (or .def_129 .def_206))
(define-fun .def_22 () Int (! |.x{120}| :next |.x{314}|))
(define-fun .def_63 () Bool (= .def_22 |.x{314}|))
(define-fun .def_208 () Bool (and .def_63 .def_207))
(define-fun .def_89 () Bool (= |.x{308}| 0))
(define-fun .def_102 () Bool (or .def_26 .def_89))
(define-fun .def_97 () Bool (and .def_61 .def_96))
(define-fun .def_98 () Bool (and .def_65 .def_97))
(define-fun .def_100 () Bool (and .def_98 .def_99))
(define-fun .def_101 () Bool (and .def_28 .def_100))
(define-fun .def_103 () Bool (and .def_101 .def_102))
(define-fun .def_209 () Bool (or .def_103 .def_208))
(define-fun .def_88 () Bool (= .def_87 4))
(define-fun .def_90 () Bool (and .def_88 .def_89))
(define-fun .def_91 () Bool (or |.x{296}| .def_90))
(define-fun .def_54 () Bool (and .def_52 .def_53))
(define-fun .def_56 () Bool (and .def_54 .def_55))
(define-fun .def_58 () Bool (and .def_56 .def_57))
(define-fun .def_60 () Bool (and .def_58 .def_59))
(define-fun .def_62 () Bool (and .def_60 .def_61))
(define-fun .def_64 () Bool (and .def_62 .def_63))
(define-fun .def_66 () Bool (and .def_64 .def_65))
(define-fun .def_92 () Bool (and .def_66 .def_91))
(define-fun .def_76 () Bool (not .def_75))
(define-fun .def_77 () Bool (or .def_26 .def_76))
(define-fun .def_93 () Bool (and .def_77 .def_92))
(define-fun .def_94 () Bool (and .def_79 .def_93))
(define-fun .def_95 () Bool (and .def_30 .def_94))
(define-fun .def_210 () Bool (or .def_95 .def_209))
(define-fun .def_36 () Real (* (/ 1 4294967296) (to_real |.x{308}|)))
(define-fun .def_37 () Int (to_int .def_36))
(define-fun .def_39 () Int (* (- 4294967296) .def_37))
(define-fun .def_40 () Int (+ |.x{308}| .def_39))
(define-fun .def_41 () Bool (= .def_40 4))
(define-fun .def_42 () Bool (not .def_41))
(define-fun .def_43 () Bool (or |.x{296}| .def_42))
(define-fun .def_67 () Bool (and .def_43 .def_66))
(define-fun .def_78 () Bool (and .def_67 .def_77))
(define-fun .def_80 () Bool (and .def_78 .def_79))
(define-fun .def_81 () Bool (and .def_30 .def_80))
(define-fun .def_83 () Bool (and .def_81 .def_82))
(define-fun .def_211 () Bool (! (or .def_83 .def_210) :trans true))
(define-fun .def_216 () Bool (and .def_32 .def_213))
(define-fun .def_217 () Bool (and .def_26 .def_216))
(define-fun .def_218 () Bool (! (not .def_217) :invar-property 0))
(assert true)
